NAME : portcgen-21-27
COMMENT : portcgen N=21, seed=27
TYPE : TSP
DIMENSION : 21
EDGE_WEIGHT_TYPE : EUC_2D
NODE_COORD_SECTION
1 -8077 421265
2 18833 -74962
3 -52096 250626
4 133478 218777
5 -63483 126496
6 -18347 -105171
7 -277787 127000
8 -39470 239526
9 77389 137228
10 -16954 114509
11 -201618 -287570
12 -287066 -292736
13 43595 -55486
14 52210 -238760
15 -125799 125133
16 224021 -133040
17 288926 173866
18 219911 -188592
19 75825 274085
20 -285334 234037
21 51890 336600
